p wcnf 1598 1595 5
5 -19 1 
5 -21 1 
5 -23 1 
5 -25 1 
5 -27 1 
5 -29 1 
5 -31 1 
5 -33 1 
5 -35 1 
5 -37 1 
5 -40 1 
5 -43 1 
5 -46 1 
5 -49 1 
5 -52 1 
5 -55 1 
5 -58 1 
5 -61 1 
5 -64 1 
5 -68 1 
5 -72 1 
5 -76 1 
5 -80 1 
5 -84 1 
5 -88 1 
5 -92 1 
5 -96 1 
5 -100 1 
5 -105 1 
5 -110 1 
5 -115 1 
5 -120 1 
5 -125 1 
5 -130 1 
5 -135 1 
5 -140 1 
5 -145 1 
5 -151 1 
5 -157 1 
5 -163 1 
5 -169 1 
5 -175 1 
5 -181 1 
5 -187 1 
5 -193 1 
5 -199 1 
5 -206 1 
5 -213 1 
5 -220 1 
5 -227 1 
5 -234 1 
5 -241 1 
5 -248 1 
5 -255 1 
5 -262 1 
5 -270 1 
5 -278 1 
5 -286 1 
5 -294 1 
5 -302 1 
5 -310 1 
5 -318 1 
5 -326 1 
5 -334 1 
5 -343 1 
5 -352 1 
5 -361 1 
5 -370 1 
5 -379 1 
5 -388 1 
5 -397 1 
5 -406 1 
5 -415 19 
5 -418 19 
5 -421 19 
5 -424 19 
5 -427 19 
5 -430 19 
5 -433 19 
5 -436 19 
5 -439 19 
5 -443 19 
5 -447 19 
5 -451 19 
5 -455 19 
5 -459 19 
5 -463 19 
5 -467 19 
5 -471 19 
5 -476 19 
5 -481 19 
5 -486 19 
5 -491 19 
5 -496 19 
5 -501 19 
5 -506 19 
5 -511 19 
5 -517 19 
5 -523 19 
5 -529 19 
5 -535 19 
5 -541 19 
5 -547 19 
5 -553 19 
5 -559 19 
5 -566 19 
5 -573 19 
5 -580 19 
5 -587 19 
5 -594 19 
5 -601 19 
5 -608 19 
5 -615 19 
5 -623 19 
5 -631 19 
5 -639 19 
5 -647 19 
5 -655 19 
5 -663 19 
5 -671 19 
5 -679 19 
5 -688 19 
5 -697 19 
5 -706 19 
5 -715 19 
5 -724 19 
5 -733 19 
5 -742 19 
5 -751 37 
5 -754 37 
5 -757 37 
5 -760 37 
5 -763 37 
5 -766 37 
5 -769 37 
5 -772 37 
5 -776 37 
5 -780 37 
5 -784 37 
5 -788 37 
5 -792 37 
5 -796 37 
5 -800 37 
5 -805 37 
5 -810 37 
5 -815 37 
5 -820 37 
5 -825 37 
5 -830 37 
5 -835 37 
5 -841 37 
5 -847 37 
5 -853 37 
5 -859 37 
5 -865 37 
5 -871 37 
5 -877 37 
5 -884 37 
5 -891 37 
5 -898 37 
5 -905 37 
5 -912 37 
5 -919 37 
5 -926 37 
5 -934 37 
5 -942 37 
5 -950 37 
5 -958 37 
5 -966 37 
5 -974 37 
5 -982 64 
5 -985 64 
5 -988 64 
5 -991 64 
5 -994 64 
5 -997 64 
5 -1000 64 
5 -1004 64 
5 -1008 64 
5 -1012 64 
5 -1016 64 
5 -1020 64 
5 -1024 64 
5 -1029 64 
5 -1034 64 
5 -1039 64 
5 -1044 64 
5 -1049 64 
5 -1054 64 
5 -1060 64 
5 -1066 64 
5 -1072 64 
5 -1078 64 
5 -1084 64 
5 -1090 64 
5 -1097 64 
5 -1104 64 
5 -1111 64 
5 -1118 64 
5 -1125 64 
5 -1132 100 
5 -1135 100 
5 -1138 100 
5 -1141 100 
5 -1144 100 
5 -1147 100 
5 -1151 100 
5 -1155 100 
5 -1159 100 
5 -1163 100 
5 -1167 100 
5 -1172 100 
5 -1177 100 
5 -1182 100 
5 -1187 100 
5 -1192 100 
5 -1198 100 
5 -1204 100 
5 -1210 100 
5 -1216 100 
5 -1222 145 
5 -1225 145 
5 -1228 145 
5 -1231 145 
5 -1234 145 
5 -1238 145 
5 -1242 145 
5 -1246 145 
5 -1250 145 
5 -1255 145 
5 -1260 145 
5 -1265 145 
5 -1270 199 
5 -1273 199 
5 -1276 199 
5 -1279 199 
5 -1283 199 
5 -1287 199 
5 -1291 262 
5 -1294 262 
5 -1297 1 
5 -1299 1 
5 -1301 1 
5 -1303 1 
5 -1305 1 
5 -1307 1 
5 -1309 1 
5 -1311 1 
5 -1313 1 
5 -1315 1 
5 -1318 1 
5 -1321 1 
5 -1324 1 
5 -1327 1 
5 -1330 1 
5 -1333 1 
5 -1336 1 
5 -1339 1 
5 -1342 1 
5 -1346 1 
5 -1350 1 
5 -1354 1 
5 -1358 1 
5 -1362 1 
5 -1366 1 
5 -1370 1 
5 -1374 1 
5 -1378 1 
5 -1383 1 
5 -1388 1 
5 -1393 1 
5 -1398 1 
5 -1403 1 
5 -1408 1 
5 -1413 1 
5 -1418 1 
5 -1423 1297 
5 -1426 1297 
5 -1429 1297 
5 -1432 1297 
5 -1435 1297 
5 -1438 1297 
5 -1441 1297 
5 -1444 1297 
5 -1447 1297 
5 -1451 1297 
5 -1455 1297 
5 -1459 1297 
5 -1463 1297 
5 -1467 1297 
5 -1471 1297 
5 -1475 1297 
5 -1479 1297 
5 -1484 1297 
5 -1489 1297 
5 -1494 1297 
5 -1499 1297 
5 -1504 1297 
5 -1509 1297 
5 -1514 1297 
5 -1519 1315 
5 -1522 1315 
5 -1525 1315 
5 -1528 1315 
5 -1531 1315 
5 -1534 1315 
5 -1537 1315 
5 -1540 1315 
5 -1544 1315 
5 -1548 1315 
5 -1552 1315 
5 -1556 1315 
5 -1560 1315 
5 -1564 1315 
5 -1568 1342 
5 -1571 1342 
5 -1574 1342 
5 -1577 1342 
5 -1580 1342 
5 -1583 1342 
5 -1586 334 343 352 361 370 379 388 397 406 679 688 697 706 715 724 733 742 926 934 942 950 958 966 974 1090 1097 1104 1111 1118 1125 1192 1198 1204 1210 1216 1378 
5 -1588 334 343 352 361 370 379 388 397 406 679 688 697 706 715 724 733 742 926 934 942 950 958 966 974 1090 1097 1104 1111 1118 1125 1192 1198 1204 1210 1216 1378 
5 -1590 334 343 352 361 370 379 388 397 406 679 688 697 706 715 724 733 742 926 934 942 950 958 966 974 1090 1097 1104 1111 1118 1125 1192 1198 1204 1210 1216 1378 
5 -1592 334 343 352 361 370 379 388 397 406 679 688 697 706 715 724 733 742 926 934 942 950 958 966 974 1090 1097 1104 1111 1118 1125 1192 1198 1204 1210 1216 1378 
5 -1594 334 343 352 361 370 379 388 397 406 679 688 697 706 715 724 733 742 926 934 942 950 958 966 974 1090 1097 1104 1111 1118 1125 1192 1198 1204 1210 1216 1378 
5 19 21 23 25 27 29 31 33 35 37 40 43 46 49 52 55 58 61 64 68 72 76 80 84 88 92 96 100 105 110 115 120 125 130 135 140 145 151 157 163 169 175 181 187 193 199 206 213 220 227 234 241 248 255 262 270 278 286 294 302 310 318 326 334 343 352 361 370 379 388 397 406 
5 19 21 23 25 27 29 31 33 35 37 40 43 46 49 52 55 58 61 64 68 72 76 80 84 88 92 96 100 105 110 115 120 125 130 135 140 145 151 157 163 169 175 181 187 193 199 206 213 220 227 234 241 248 255 262 270 278 286 294 302 310 318 326 334 343 352 361 370 379 388 397 406 415 418 421 424 427 430 433 436 439 443 447 451 455 459 463 467 471 476 481 486 491 496 501 506 511 517 523 529 535 541 547 553 559 566 573 580 587 594 601 608 615 623 631 639 647 655 663 671 679 688 697 706 715 724 733 742 
5 37 40 43 46 49 52 55 58 61 64 68 72 76 80 84 88 92 96 100 105 110 115 120 125 130 135 140 145 151 157 163 169 175 181 187 193 199 206 213 220 227 234 241 248 255 262 270 278 286 294 302 310 318 326 334 343 352 361 370 379 388 397 406 415 418 421 424 427 430 433 436 439 443 447 451 455 459 463 467 471 476 481 486 491 496 501 506 511 517 523 529 535 541 547 553 559 566 573 580 587 594 601 608 615 623 631 639 647 655 663 671 679 688 697 706 715 724 733 742 751 754 757 760 763 766 769 772 776 780 784 788 792 796 800 805 810 815 820 825 830 835 841 847 853 859 865 871 877 884 891 898 905 912 919 926 934 942 950 958 966 974 
5 64 68 72 76 80 84 88 92 96 100 105 110 115 120 125 130 135 140 145 151 157 163 169 175 181 187 193 199 206 213 220 227 234 241 248 255 262 270 278 286 294 302 310 318 326 334 343 352 361 370 379 388 397 406 415 418 421 424 427 430 433 436 439 443 447 451 455 459 463 467 471 476 481 486 491 496 501 506 511 517 523 529 535 541 547 553 559 566 573 580 587 594 601 608 615 623 631 639 647 655 663 671 679 688 697 706 715 724 733 742 751 754 757 760 763 766 769 772 776 780 784 788 792 796 800 805 810 815 820 825 830 835 841 847 853 859 865 871 877 884 891 898 905 912 919 926 934 942 950 958 966 974 982 985 988 991 994 997 1000 1004 1008 1012 1016 1020 1024 1029 1034 1039 1044 1049 1054 1060 1066 1072 1078 1084 1090 1097 1104 1111 1118 1125 
5 100 105 110 115 120 125 130 135 140 145 151 157 163 169 175 181 187 193 199 206 213 220 227 234 241 248 255 262 270 278 286 294 302 310 318 326 334 343 352 361 370 379 388 397 406 439 443 447 451 455 459 463 467 471 476 481 486 491 496 501 506 511 517 523 529 535 541 547 553 559 566 573 580 587 594 601 608 615 623 631 639 647 655 663 671 679 688 697 706 715 724 733 742 751 754 757 760 763 766 769 772 776 780 784 788 792 796 800 805 810 815 820 825 830 835 841 847 853 859 865 871 877 884 891 898 905 912 919 926 934 942 950 958 966 974 982 985 988 991 994 997 1000 1004 1008 1012 1016 1020 1024 1029 1034 1039 1044 1049 1054 1060 1066 1072 1078 1084 1090 1097 1104 1111 1118 1125 1132 1135 1138 1141 1144 1147 1151 1155 1159 1163 1167 1172 1177 1182 1187 1192 1198 1204 1210 1216 
5 145 151 157 163 169 175 181 187 193 199 206 213 220 227 234 241 248 255 262 270 278 286 294 302 310 318 326 334 343 352 361 370 379 388 397 406 471 476 481 486 491 496 501 506 511 517 523 529 535 541 547 553 559 566 573 580 587 594 601 608 615 623 631 639 647 655 663 671 679 688 697 706 715 724 733 742 772 776 780 784 788 792 796 800 805 810 815 820 825 830 835 841 847 853 859 865 871 877 884 891 898 905 912 919 926 934 942 950 958 966 974 982 985 988 991 994 997 1000 1004 1008 1012 1016 1020 1024 1029 1034 1039 1044 1049 1054 1060 1066 1072 1078 1084 1090 1097 1104 1111 1118 1125 1132 1135 1138 1141 1144 1147 1151 1155 1159 1163 1167 1172 1177 1182 1187 1192 1198 1204 1210 1216 1222 1225 1228 1231 1234 1238 1242 1246 1250 1255 1260 1265 
5 199 206 213 220 227 234 241 248 255 262 270 278 286 294 302 310 318 326 334 343 352 361 370 379 388 397 406 511 517 523 529 535 541 547 553 559 566 573 580 587 594 601 608 615 623 631 639 647 655 663 671 679 688 697 706 715 724 733 742 800 805 810 815 820 825 830 835 841 847 853 859 865 871 877 884 891 898 905 912 919 926 934 942 950 958 966 974 1000 1004 1008 1012 1016 1020 1024 1029 1034 1039 1044 1049 1054 1060 1066 1072 1078 1084 1090 1097 1104 1111 1118 1125 1132 1135 1138 1141 1144 1147 1151 1155 1159 1163 1167 1172 1177 1182 1187 1192 1198 1204 1210 1216 1222 1225 1228 1231 1234 1238 1242 1246 1250 1255 1260 1265 1270 1273 1276 1279 1283 1287 
5 262 270 278 286 294 302 310 318 326 334 343 352 361 370 379 388 397 406 559 566 573 580 587 594 601 608 615 623 631 639 647 655 663 671 679 688 697 706 715 724 733 742 835 841 847 853 859 865 871 877 884 891 898 905 912 919 926 934 942 950 958 966 974 1024 1029 1034 1039 1044 1049 1054 1060 1066 1072 1078 1084 1090 1097 1104 1111 1118 1125 1147 1151 1155 1159 1163 1167 1172 1177 1182 1187 1192 1198 1204 1210 1216 1222 1225 1228 1231 1234 1238 1242 1246 1250 1255 1260 1265 1270 1273 1276 1279 1283 1287 1291 1294 
5 1297 1299 1301 1303 1305 1307 1309 1311 1313 1315 1318 1321 1324 1327 1330 1333 1336 1339 1342 1346 1350 1354 1358 1362 1366 1370 1374 1378 1383 1388 1393 1398 1403 1408 1413 1418 
5 1297 1299 1301 1303 1305 1307 1309 1311 1313 1315 1318 1321 1324 1327 1330 1333 1336 1339 1342 1346 1350 1354 1358 1362 1366 1370 1374 1378 1383 1388 1393 1398 1403 1408 1413 1418 1423 1426 1429 1432 1435 1438 1441 1444 1447 1451 1455 1459 1463 1467 1471 1475 1479 1484 1489 1494 1499 1504 1509 1514 
5 1315 1318 1321 1324 1327 1330 1333 1336 1339 1342 1346 1350 1354 1358 1362 1366 1370 1374 1378 1383 1388 1393 1398 1403 1408 1413 1418 1423 1426 1429 1432 1435 1438 1441 1444 1447 1451 1455 1459 1463 1467 1471 1475 1479 1484 1489 1494 1499 1504 1509 1514 1519 1522 1525 1528 1531 1534 1537 1540 1544 1548 1552 1556 1560 1564 
5 1342 1346 1350 1354 1358 1362 1366 1370 1374 1378 1383 1388 1393 1398 1403 1408 1413 1418 1423 1426 1429 1432 1435 1438 1441 1444 1447 1451 1455 1459 1463 1467 1471 1475 1479 1484 1489 1494 1499 1504 1509 1514 1519 1522 1525 1528 1531 1534 1537 1540 1544 1548 1552 1556 1560 1564 1568 1571 1574 1577 1580 1583 
5 -1 2 
5 -3 4 
5 -5 6 
5 -7 8 
5 -9 10 
5 -11 12 
5 -13 14 
5 -15 16 
5 -17 18 
5 -19 20 
5 -21 22 
5 -23 24 
5 -25 26 
5 -27 28 
5 -29 30 
5 -31 32 
5 -33 34 
5 -35 36 
5 -37 38 
5 -37 39 
5 -40 41 
5 -40 42 
5 -43 44 
5 -43 45 
5 -46 47 
5 -46 48 
5 -49 50 
5 -49 51 
5 -52 53 
5 -52 54 
5 -55 56 
5 -55 57 
5 -58 59 
5 -58 60 
5 -61 62 
5 -61 63 
5 -64 65 
5 -64 66 
5 -64 67 
5 -68 69 
5 -68 70 
5 -68 71 
5 -72 73 
5 -72 74 
5 -72 75 
5 -76 77 
5 -76 78 
5 -76 79 
5 -80 81 
5 -80 82 
5 -80 83 
5 -84 85 
5 -84 86 
5 -84 87 
5 -88 89 
5 -88 90 
5 -88 91 
5 -92 93 
5 -92 94 
5 -92 95 
5 -96 97 
5 -96 98 
5 -96 99 
5 -100 101 
5 -100 102 
5 -100 103 
5 -100 104 
5 -105 106 
5 -105 107 
5 -105 108 
5 -105 109 
5 -110 111 
5 -110 112 
5 -110 113 
5 -110 114 
5 -115 116 
5 -115 117 
5 -115 118 
5 -115 119 
5 -120 121 
5 -120 122 
5 -120 123 
5 -120 124 
5 -125 126 
5 -125 127 
5 -125 128 
5 -125 129 
5 -130 131 
5 -130 132 
5 -130 133 
5 -130 134 
5 -135 136 
5 -135 137 
5 -135 138 
5 -135 139 
5 -140 141 
5 -140 142 
5 -140 143 
5 -140 144 
5 -145 146 
5 -145 147 
5 -145 148 
5 -145 149 
5 -145 150 
5 -151 152 
5 -151 153 
5 -151 154 
5 -151 155 
5 -151 156 
5 -157 158 
5 -157 159 
5 -157 160 
5 -157 161 
5 -157 162 
5 -163 164 
5 -163 165 
5 -163 166 
5 -163 167 
5 -163 168 
5 -169 170 
5 -169 171 
5 -169 172 
5 -169 173 
5 -169 174 
5 -175 176 
5 -175 177 
5 -175 178 
5 -175 179 
5 -175 180 
5 -181 182 
5 -181 183 
5 -181 184 
5 -181 185 
5 -181 186 
5 -187 188 
5 -187 189 
5 -187 190 
5 -187 191 
5 -187 192 
5 -193 194 
5 -193 195 
5 -193 196 
5 -193 197 
5 -193 198 
5 -199 200 
5 -199 201 
5 -199 202 
5 -199 203 
5 -199 204 
5 -199 205 
5 -206 207 
5 -206 208 
5 -206 209 
5 -206 210 
5 -206 211 
5 -206 212 
5 -213 214 
5 -213 215 
5 -213 216 
5 -213 217 
5 -213 218 
5 -213 219 
5 -220 221 
5 -220 222 
5 -220 223 
5 -220 224 
5 -220 225 
5 -220 226 
5 -227 228 
5 -227 229 
5 -227 230 
5 -227 231 
5 -227 232 
5 -227 233 
5 -234 235 
5 -234 236 
5 -234 237 
5 -234 238 
5 -234 239 
5 -234 240 
5 -241 242 
5 -241 243 
5 -241 244 
5 -241 245 
5 -241 246 
5 -241 247 
5 -248 249 
5 -248 250 
5 -248 251 
5 -248 252 
5 -248 253 
5 -248 254 
5 -255 256 
5 -255 257 
5 -255 258 
5 -255 259 
5 -255 260 
5 -255 261 
5 -262 263 
5 -262 264 
5 -262 265 
5 -262 266 
5 -262 267 
5 -262 268 
5 -262 269 
5 -270 271 
5 -270 272 
5 -270 273 
5 -270 274 
5 -270 275 
5 -270 276 
5 -270 277 
5 -278 279 
5 -278 280 
5 -278 281 
5 -278 282 
5 -278 283 
5 -278 284 
5 -278 285 
5 -286 287 
5 -286 288 
5 -286 289 
5 -286 290 
5 -286 291 
5 -286 292 
5 -286 293 
5 -294 295 
5 -294 296 
5 -294 297 
5 -294 298 
5 -294 299 
5 -294 300 
5 -294 301 
5 -302 303 
5 -302 304 
5 -302 305 
5 -302 306 
5 -302 307 
5 -302 308 
5 -302 309 
5 -310 311 
5 -310 312 
5 -310 313 
5 -310 314 
5 -310 315 
5 -310 316 
5 -310 317 
5 -318 319 
5 -318 320 
5 -318 321 
5 -318 322 
5 -318 323 
5 -318 324 
5 -318 325 
5 -326 327 
5 -326 328 
5 -326 329 
5 -326 330 
5 -326 331 
5 -326 332 
5 -326 333 
5 -334 335 
5 -334 336 
5 -334 337 
5 -334 338 
5 -334 339 
5 -334 340 
5 -334 341 
5 -334 342 
5 -343 344 
5 -343 345 
5 -343 346 
5 -343 347 
5 -343 348 
5 -343 349 
5 -343 350 
5 -343 351 
5 -352 353 
5 -352 354 
5 -352 355 
5 -352 356 
5 -352 357 
5 -352 358 
5 -352 359 
5 -352 360 
5 -361 362 
5 -361 363 
5 -361 364 
5 -361 365 
5 -361 366 
5 -361 367 
5 -361 368 
5 -361 369 
5 -370 371 
5 -370 372 
5 -370 373 
5 -370 374 
5 -370 375 
5 -370 376 
5 -370 377 
5 -370 378 
5 -379 380 
5 -379 381 
5 -379 382 
5 -379 383 
5 -379 384 
5 -379 385 
5 -379 386 
5 -379 387 
5 -388 389 
5 -388 390 
5 -388 391 
5 -388 392 
5 -388 393 
5 -388 394 
5 -388 395 
5 -388 396 
5 -397 398 
5 -397 399 
5 -397 400 
5 -397 401 
5 -397 402 
5 -397 403 
5 -397 404 
5 -397 405 
5 -406 407 
5 -406 408 
5 -406 409 
5 -406 410 
5 -406 411 
5 -406 412 
5 -406 413 
5 -406 414 
5 -415 416 
5 -415 417 
5 -418 419 
5 -418 420 
5 -421 422 
5 -421 423 
5 -424 425 
5 -424 426 
5 -427 428 
5 -427 429 
5 -430 431 
5 -430 432 
5 -433 434 
5 -433 435 
5 -436 437 
5 -436 438 
5 -439 440 
5 -439 441 
5 -439 442 
5 -443 444 
5 -443 445 
5 -443 446 
5 -447 448 
5 -447 449 
5 -447 450 
5 -451 452 
5 -451 453 
5 -451 454 
5 -455 456 
5 -455 457 
5 -455 458 
5 -459 460 
5 -459 461 
5 -459 462 
5 -463 464 
5 -463 465 
5 -463 466 
5 -467 468 
5 -467 469 
5 -467 470 
5 -471 472 
5 -471 473 
5 -471 474 
5 -471 475 
5 -476 477 
5 -476 478 
5 -476 479 
5 -476 480 
5 -481 482 
5 -481 483 
5 -481 484 
5 -481 485 
5 -486 487 
5 -486 488 
5 -486 489 
5 -486 490 
5 -491 492 
5 -491 493 
5 -491 494 
5 -491 495 
5 -496 497 
5 -496 498 
5 -496 499 
5 -496 500 
5 -501 502 
5 -501 503 
5 -501 504 
5 -501 505 
5 -506 507 
5 -506 508 
5 -506 509 
5 -506 510 
5 -511 512 
5 -511 513 
5 -511 514 
5 -511 515 
5 -511 516 
5 -517 518 
5 -517 519 
5 -517 520 
5 -517 521 
5 -517 522 
5 -523 524 
5 -523 525 
5 -523 526 
5 -523 527 
5 -523 528 
5 -529 530 
5 -529 531 
5 -529 532 
5 -529 533 
5 -529 534 
5 -535 536 
5 -535 537 
5 -535 538 
5 -535 539 
5 -535 540 
5 -541 542 
5 -541 543 
5 -541 544 
5 -541 545 
5 -541 546 
5 -547 548 
5 -547 549 
5 -547 550 
5 -547 551 
5 -547 552 
5 -553 554 
5 -553 555 
5 -553 556 
5 -553 557 
5 -553 558 
5 -559 560 
5 -559 561 
5 -559 562 
5 -559 563 
5 -559 564 
5 -559 565 
5 -566 567 
5 -566 568 
5 -566 569 
5 -566 570 
5 -566 571 
5 -566 572 
5 -573 574 
5 -573 575 
5 -573 576 
5 -573 577 
5 -573 578 
5 -573 579 
5 -580 581 
5 -580 582 
5 -580 583 
5 -580 584 
5 -580 585 
5 -580 586 
5 -587 588 
5 -587 589 
5 -587 590 
5 -587 591 
5 -587 592 
5 -587 593 
5 -594 595 
5 -594 596 
5 -594 597 
5 -594 598 
5 -594 599 
5 -594 600 
5 -601 602 
5 -601 603 
5 -601 604 
5 -601 605 
5 -601 606 
5 -601 607 
5 -608 609 
5 -608 610 
5 -608 611 
5 -608 612 
5 -608 613 
5 -608 614 
5 -615 616 
5 -615 617 
5 -615 618 
5 -615 619 
5 -615 620 
5 -615 621 
5 -615 622 
5 -623 624 
5 -623 625 
5 -623 626 
5 -623 627 
5 -623 628 
5 -623 629 
5 -623 630 
5 -631 632 
5 -631 633 
5 -631 634 
5 -631 635 
5 -631 636 
5 -631 637 
5 -631 638 
5 -639 640 
5 -639 641 
5 -639 642 
5 -639 643 
5 -639 644 
5 -639 645 
5 -639 646 
5 -647 648 
5 -647 649 
5 -647 650 
5 -647 651 
5 -647 652 
5 -647 653 
5 -647 654 
5 -655 656 
5 -655 657 
5 -655 658 
5 -655 659 
5 -655 660 
5 -655 661 
5 -655 662 
5 -663 664 
5 -663 665 
5 -663 666 
5 -663 667 
5 -663 668 
5 -663 669 
5 -663 670 
5 -671 672 
5 -671 673 
5 -671 674 
5 -671 675 
5 -671 676 
5 -671 677 
5 -671 678 
5 -679 680 
5 -679 681 
5 -679 682 
5 -679 683 
5 -679 684 
5 -679 685 
5 -679 686 
5 -679 687 
5 -688 689 
5 -688 690 
5 -688 691 
5 -688 692 
5 -688 693 
5 -688 694 
5 -688 695 
5 -688 696 
5 -697 698 
5 -697 699 
5 -697 700 
5 -697 701 
5 -697 702 
5 -697 703 
5 -697 704 
5 -697 705 
5 -706 707 
5 -706 708 
5 -706 709 
5 -706 710 
5 -706 711 
5 -706 712 
5 -706 713 
5 -706 714 
5 -715 716 
5 -715 717 
5 -715 718 
5 -715 719 
5 -715 720 
5 -715 721 
5 -715 722 
5 -715 723 
5 -724 725 
5 -724 726 
5 -724 727 
5 -724 728 
5 -724 729 
5 -724 730 
5 -724 731 
5 -724 732 
5 -733 734 
5 -733 735 
5 -733 736 
5 -733 737 
5 -733 738 
5 -733 739 
5 -733 740 
5 -733 741 
5 -742 743 
5 -742 744 
5 -742 745 
5 -742 746 
5 -742 747 
5 -742 748 
5 -742 749 
5 -742 750 
5 -751 752 
5 -751 753 
5 -754 755 
5 -754 756 
5 -757 758 
5 -757 759 
5 -760 761 
5 -760 762 
5 -763 764 
5 -763 765 
5 -766 767 
5 -766 768 
5 -769 770 
5 -769 771 
5 -772 773 
5 -772 774 
5 -772 775 
5 -776 777 
5 -776 778 
5 -776 779 
5 -780 781 
5 -780 782 
5 -780 783 
5 -784 785 
5 -784 786 
5 -784 787 
5 -788 789 
5 -788 790 
5 -788 791 
5 -792 793 
5 -792 794 
5 -792 795 
5 -796 797 
5 -796 798 
5 -796 799 
5 -800 801 
5 -800 802 
5 -800 803 
5 -800 804 
5 -805 806 
5 -805 807 
5 -805 808 
5 -805 809 
5 -810 811 
5 -810 812 
5 -810 813 
5 -810 814 
5 -815 816 
5 -815 817 
5 -815 818 
5 -815 819 
5 -820 821 
5 -820 822 
5 -820 823 
5 -820 824 
5 -825 826 
5 -825 827 
5 -825 828 
5 -825 829 
5 -830 831 
5 -830 832 
5 -830 833 
5 -830 834 
5 -835 836 
5 -835 837 
5 -835 838 
5 -835 839 
5 -835 840 
5 -841 842 
5 -841 843 
5 -841 844 
5 -841 845 
5 -841 846 
5 -847 848 
5 -847 849 
5 -847 850 
5 -847 851 
5 -847 852 
5 -853 854 
5 -853 855 
5 -853 856 
5 -853 857 
5 -853 858 
5 -859 860 
5 -859 861 
5 -859 862 
5 -859 863 
5 -859 864 
5 -865 866 
5 -865 867 
5 -865 868 
5 -865 869 
5 -865 870 
5 -871 872 
5 -871 873 
5 -871 874 
5 -871 875 
5 -871 876 
5 -877 878 
5 -877 879 
5 -877 880 
5 -877 881 
5 -877 882 
5 -877 883 
5 -884 885 
5 -884 886 
5 -884 887 
5 -884 888 
5 -884 889 
5 -884 890 
5 -891 892 
5 -891 893 
5 -891 894 
5 -891 895 
5 -891 896 
5 -891 897 
5 -898 899 
5 -898 900 
5 -898 901 
5 -898 902 
5 -898 903 
5 -898 904 
5 -905 906 
5 -905 907 
5 -905 908 
5 -905 909 
5 -905 910 
5 -905 911 
5 -912 913 
5 -912 914 
5 -912 915 
5 -912 916 
5 -912 917 
5 -912 918 
5 -919 920 
5 -919 921 
5 -919 922 
5 -919 923 
5 -919 924 
5 -919 925 
5 -926 927 
5 -926 928 
5 -926 929 
5 -926 930 
5 -926 931 
5 -926 932 
5 -926 933 
5 -934 935 
5 -934 936 
5 -934 937 
5 -934 938 
5 -934 939 
5 -934 940 
5 -934 941 
5 -942 943 
5 -942 944 
5 -942 945 
5 -942 946 
5 -942 947 
5 -942 948 
5 -942 949 
5 -950 951 
5 -950 952 
5 -950 953 
5 -950 954 
5 -950 955 
5 -950 956 
5 -950 957 
5 -958 959 
5 -958 960 
5 -958 961 
5 -958 962 
5 -958 963 
5 -958 964 
5 -958 965 
5 -966 967 
5 -966 968 
5 -966 969 
5 -966 970 
5 -966 971 
5 -966 972 
5 -966 973 
5 -974 975 
5 -974 976 
5 -974 977 
5 -974 978 
5 -974 979 
5 -974 980 
5 -974 981 
5 -982 983 
5 -982 984 
5 -985 986 
5 -985 987 
5 -988 989 
5 -988 990 
5 -991 992 
5 -991 993 
5 -994 995 
5 -994 996 
5 -997 998 
5 -997 999 
5 -1000 1001 
5 -1000 1002 
5 -1000 1003 
5 -1004 1005 
5 -1004 1006 
5 -1004 1007 
5 -1008 1009 
5 -1008 1010 
5 -1008 1011 
5 -1012 1013 
5 -1012 1014 
5 -1012 1015 
5 -1016 1017 
5 -1016 1018 
5 -1016 1019 
5 -1020 1021 
5 -1020 1022 
5 -1020 1023 
5 -1024 1025 
5 -1024 1026 
5 -1024 1027 
5 -1024 1028 
5 -1029 1030 
5 -1029 1031 
5 -1029 1032 
5 -1029 1033 
5 -1034 1035 
5 -1034 1036 
5 -1034 1037 
5 -1034 1038 
5 -1039 1040 
5 -1039 1041 
5 -1039 1042 
5 -1039 1043 
5 -1044 1045 
5 -1044 1046 
5 -1044 1047 
5 -1044 1048 
5 -1049 1050 
5 -1049 1051 
5 -1049 1052 
5 -1049 1053 
5 -1054 1055 
5 -1054 1056 
5 -1054 1057 
5 -1054 1058 
5 -1054 1059 
5 -1060 1061 
5 -1060 1062 
5 -1060 1063 
5 -1060 1064 
5 -1060 1065 
5 -1066 1067 
5 -1066 1068 
5 -1066 1069 
5 -1066 1070 
5 -1066 1071 
5 -1072 1073 
5 -1072 1074 
5 -1072 1075 
5 -1072 1076 
5 -1072 1077 
5 -1078 1079 
5 -1078 1080 
5 -1078 1081 
5 -1078 1082 
5 -1078 1083 
5 -1084 1085 
5 -1084 1086 
5 -1084 1087 
5 -1084 1088 
5 -1084 1089 
5 -1090 1091 
5 -1090 1092 
5 -1090 1093 
5 -1090 1094 
5 -1090 1095 
5 -1090 1096 
5 -1097 1098 
5 -1097 1099 
5 -1097 1100 
5 -1097 1101 
5 -1097 1102 
5 -1097 1103 
5 -1104 1105 
5 -1104 1106 
5 -1104 1107 
5 -1104 1108 
5 -1104 1109 
5 -1104 1110 
5 -1111 1112 
5 -1111 1113 
5 -1111 1114 
5 -1111 1115 
5 -1111 1116 
5 -1111 1117 
5 -1118 1119 
5 -1118 1120 
5 -1118 1121 
5 -1118 1122 
5 -1118 1123 
5 -1118 1124 
5 -1125 1126 
5 -1125 1127 
5 -1125 1128 
5 -1125 1129 
5 -1125 1130 
5 -1125 1131 
5 -1132 1133 
5 -1132 1134 
5 -1135 1136 
5 -1135 1137 
5 -1138 1139 
5 -1138 1140 
5 -1141 1142 
5 -1141 1143 
5 -1144 1145 
5 -1144 1146 
5 -1147 1148 
5 -1147 1149 
5 -1147 1150 
5 -1151 1152 
5 -1151 1153 
5 -1151 1154 
5 -1155 1156 
5 -1155 1157 
5 -1155 1158 
5 -1159 1160 
5 -1159 1161 
5 -1159 1162 
5 -1163 1164 
5 -1163 1165 
5 -1163 1166 
5 -1167 1168 
5 -1167 1169 
5 -1167 1170 
5 -1167 1171 
5 -1172 1173 
5 -1172 1174 
5 -1172 1175 
5 -1172 1176 
5 -1177 1178 
5 -1177 1179 
5 -1177 1180 
5 -1177 1181 
5 -1182 1183 
5 -1182 1184 
5 -1182 1185 
5 -1182 1186 
5 -1187 1188 
5 -1187 1189 
5 -1187 1190 
5 -1187 1191 
5 -1192 1193 
5 -1192 1194 
5 -1192 1195 
5 -1192 1196 
5 -1192 1197 
5 -1198 1199 
5 -1198 1200 
5 -1198 1201 
5 -1198 1202 
5 -1198 1203 
5 -1204 1205 
5 -1204 1206 
5 -1204 1207 
5 -1204 1208 
5 -1204 1209 
5 -1210 1211 
5 -1210 1212 
5 -1210 1213 
5 -1210 1214 
5 -1210 1215 
5 -1216 1217 
5 -1216 1218 
5 -1216 1219 
5 -1216 1220 
5 -1216 1221 
5 -1222 1223 
5 -1222 1224 
5 -1225 1226 
5 -1225 1227 
5 -1228 1229 
5 -1228 1230 
5 -1231 1232 
5 -1231 1233 
5 -1234 1235 
5 -1234 1236 
5 -1234 1237 
5 -1238 1239 
5 -1238 1240 
5 -1238 1241 
5 -1242 1243 
5 -1242 1244 
5 -1242 1245 
5 -1246 1247 
5 -1246 1248 
5 -1246 1249 
5 -1250 1251 
5 -1250 1252 
5 -1250 1253 
5 -1250 1254 
5 -1255 1256 
5 -1255 1257 
5 -1255 1258 
5 -1255 1259 
5 -1260 1261 
5 -1260 1262 
5 -1260 1263 
5 -1260 1264 
5 -1265 1266 
5 -1265 1267 
5 -1265 1268 
5 -1265 1269 
5 -1270 1271 
5 -1270 1272 
5 -1273 1274 
5 -1273 1275 
5 -1276 1277 
5 -1276 1278 
5 -1279 1280 
5 -1279 1281 
5 -1279 1282 
5 -1283 1284 
5 -1283 1285 
5 -1283 1286 
5 -1287 1288 
5 -1287 1289 
5 -1287 1290 
5 -1291 1292 
5 -1291 1293 
5 -1294 1295 
5 -1294 1296 
5 -1297 1298 
5 -1299 1300 
5 -1301 1302 
5 -1303 1304 
5 -1305 1306 
5 -1307 1308 
5 -1309 1310 
5 -1311 1312 
5 -1313 1314 
5 -1315 1316 
5 -1315 1317 
5 -1318 1319 
5 -1318 1320 
5 -1321 1322 
5 -1321 1323 
5 -1324 1325 
5 -1324 1326 
5 -1327 1328 
5 -1327 1329 
5 -1330 1331 
5 -1330 1332 
5 -1333 1334 
5 -1333 1335 
5 -1336 1337 
5 -1336 1338 
5 -1339 1340 
5 -1339 1341 
5 -1342 1343 
5 -1342 1344 
5 -1342 1345 
5 -1346 1347 
5 -1346 1348 
5 -1346 1349 
5 -1350 1351 
5 -1350 1352 
5 -1350 1353 
5 -1354 1355 
5 -1354 1356 
5 -1354 1357 
5 -1358 1359 
5 -1358 1360 
5 -1358 1361 
5 -1362 1363 
5 -1362 1364 
5 -1362 1365 
5 -1366 1367 
5 -1366 1368 
5 -1366 1369 
5 -1370 1371 
5 -1370 1372 
5 -1370 1373 
5 -1374 1375 
5 -1374 1376 
5 -1374 1377 
5 -1378 1379 
5 -1378 1380 
5 -1378 1381 
5 -1378 1382 
5 -1383 1384 
5 -1383 1385 
5 -1383 1386 
5 -1383 1387 
5 -1388 1389 
5 -1388 1390 
5 -1388 1391 
5 -1388 1392 
5 -1393 1394 
5 -1393 1395 
5 -1393 1396 
5 -1393 1397 
5 -1398 1399 
5 -1398 1400 
5 -1398 1401 
5 -1398 1402 
5 -1403 1404 
5 -1403 1405 
5 -1403 1406 
5 -1403 1407 
5 -1408 1409 
5 -1408 1410 
5 -1408 1411 
5 -1408 1412 
5 -1413 1414 
5 -1413 1415 
5 -1413 1416 
5 -1413 1417 
5 -1418 1419 
5 -1418 1420 
5 -1418 1421 
5 -1418 1422 
5 -1423 1424 
5 -1423 1425 
5 -1426 1427 
5 -1426 1428 
5 -1429 1430 
5 -1429 1431 
5 -1432 1433 
5 -1432 1434 
5 -1435 1436 
5 -1435 1437 
5 -1438 1439 
5 -1438 1440 
5 -1441 1442 
5 -1441 1443 
5 -1444 1445 
5 -1444 1446 
5 -1447 1448 
5 -1447 1449 
5 -1447 1450 
5 -1451 1452 
5 -1451 1453 
5 -1451 1454 
5 -1455 1456 
5 -1455 1457 
5 -1455 1458 
5 -1459 1460 
5 -1459 1461 
5 -1459 1462 
5 -1463 1464 
5 -1463 1465 
5 -1463 1466 
5 -1467 1468 
5 -1467 1469 
5 -1467 1470 
5 -1471 1472 
5 -1471 1473 
5 -1471 1474 
5 -1475 1476 
5 -1475 1477 
5 -1475 1478 
5 -1479 1480 
5 -1479 1481 
5 -1479 1482 
5 -1479 1483 
5 -1484 1485 
5 -1484 1486 
5 -1484 1487 
5 -1484 1488 
5 -1489 1490 
5 -1489 1491 
5 -1489 1492 
5 -1489 1493 
5 -1494 1495 
5 -1494 1496 
5 -1494 1497 
5 -1494 1498 
5 -1499 1500 
5 -1499 1501 
5 -1499 1502 
5 -1499 1503 
5 -1504 1505 
5 -1504 1506 
5 -1504 1507 
5 -1504 1508 
5 -1509 1510 
5 -1509 1511 
5 -1509 1512 
5 -1509 1513 
5 -1514 1515 
5 -1514 1516 
5 -1514 1517 
5 -1514 1518 
5 -1519 1520 
5 -1519 1521 
5 -1522 1523 
5 -1522 1524 
5 -1525 1526 
5 -1525 1527 
5 -1528 1529 
5 -1528 1530 
5 -1531 1532 
5 -1531 1533 
5 -1534 1535 
5 -1534 1536 
5 -1537 1538 
5 -1537 1539 
5 -1540 1541 
5 -1540 1542 
5 -1540 1543 
5 -1544 1545 
5 -1544 1546 
5 -1544 1547 
5 -1548 1549 
5 -1548 1550 
5 -1548 1551 
5 -1552 1553 
5 -1552 1554 
5 -1552 1555 
5 -1556 1557 
5 -1556 1558 
5 -1556 1559 
5 -1560 1561 
5 -1560 1562 
5 -1560 1563 
5 -1564 1565 
5 -1564 1566 
5 -1564 1567 
5 -1568 1569 
5 -1568 1570 
5 -1571 1572 
5 -1571 1573 
5 -1574 1575 
5 -1574 1576 
5 -1577 1578 
5 -1577 1579 
5 -1580 1581 
5 -1580 1582 
5 -1583 1584 
5 -1583 1585 
5 -1586 1587 
5 -1588 1589 
5 -1590 1591 
5 -1592 1593 
5 -1594 1595 
1 1595 
2 1593 
3 1591 
4 1589 
5 1587 
